data;
set WEIGHTS := x0 x1 x2 x3 x4 x5 x6 x7 x8 x9 x10 x11 x12 x13 x14 x15;
param:  cost :=
  x0  405
  x1  500
  x2  725
  x3  639
  x4  432
  x5  293
  x6  747
  x7  284
  x8  232
  x9  742
  x10  65
  x11  749
  x12  893
  x13  397
  x14  457
  x15  613;
param cap := 4000;